This is Ipopt version 3.12.3, running with linear solver mumps.
NOTE: Other linear solvers might be more efficient (see Ipopt documentation).

Number of nonzeros in equality constraint Jacobian...:    74270
Number of nonzeros in inequality constraint Jacobian.:    16356
Number of nonzeros in Lagrangian Hessian.............:    19530

Total number of variables............................:    16356
                     variables with only lower bounds:        0
                variables with lower and upper bounds:        0
                     variables with only upper bounds:        0
Total number of equality constraints.................:    14700
Total number of inequality constraints...............:    16356
        inequality constraints with only lower bounds:        0
   inequality constraints with lower and upper bounds:    16356
        inequality constraints with only upper bounds:        0

iter    objective    inf_pr   inf_du lg(mu)  ||d||  lg(rg) alpha_du alpha_pr  ls
   0 2.4130003e-001 6.23e-001 3.24e-003  -1.0 0.00e+000    -  0.00e+000 0.00e+000   0
   1 8.6286861e+000 7.54e+000 2.87e+000  -1.0 1.83e-001    -  2.97e-001 1.00e+000f  1
   2 1.1160129e+001 7.92e-001 6.87e-001  -1.0 2.59e-001   0.0 8.56e-001 1.00e+000f  1
   3 6.6818351e+000 5.72e-001 4.05e-001  -1.7 7.20e-002   0.4 1.00e+000 1.00e+000f  1
   4 3.5302848e+000 2.90e-001 2.20e-001  -1.7 1.05e-001  -0.1 1.00e+000 1.00e+000f  1
   5 3.1231227e+000 1.53e-002 7.86e-002  -1.7 3.19e-002   0.4 1.00e+000 1.00e+000f  1
   6 1.8027813e+000 1.10e-001 8.51e-002  -2.5 3.55e-002  -0.1 1.00e+000 1.00e+000f  1
   7 1.4551102e+000 3.88e-002 5.06e-002  -2.5 4.30e-002  -0.6 1.00e+000 1.00e+000f  1
   8 1.5940914e+000 1.13e-001 3.18e-002  -2.5 6.74e-002  -1.1 1.00e+000 1.00e+000f  1
   9 1.6660164e+000 8.56e-003 5.37e-003  -2.5 2.29e-002  -0.6 1.00e+000 1.00e+000h  1
iter    objective    inf_pr   inf_du lg(mu)  ||d||  lg(rg) alpha_du alpha_pr  ls
  10 1.5768463e+000 1.58e-002 1.07e-002  -3.8 2.18e-002  -1.1 1.00e+000 1.00e+000h  1
  11 1.4219817e+000 1.04e-001 2.31e-003  -3.8 7.13e-002  -1.6 1.00e+000 1.00e+000h  1
  12 1.1238308e+000 5.40e-001 2.34e-003  -3.8 1.17e-001  -2.1 1.00e+000 1.00e+000h  1
  13 8.2834628e-001 6.08e+000 6.78e-002  -3.8 7.07e-001  -2.5 1.00e+000 9.20e-001h  1
  14 7.6394280e-001 1.48e+000 2.04e-002  -3.8 2.90e-001  -2.1 1.00e+000 1.00e+000h  1
  15 6.9862636e-001 2.05e-001 2.54e-003  -3.8 1.34e-001  -2.6 1.00e+000 1.00e+000h  1
  16 6.7112857e-001 2.33e-001 1.32e-003  -3.8 1.50e-001  -3.1 1.00e+000 1.00e+000h  1
  17 6.6649935e-001 4.44e-001 1.80e-003  -3.8 2.22e-001    -  1.00e+000 1.00e+000h  1
  18 6.6672794e-001 4.08e-002 2.84e-004  -3.8 8.98e-002  -3.5 1.00e+000 1.00e+000h  1
  19 6.6672475e-001 4.13e-002 3.90e-003  -3.8 3.82e-001  -4.0 1.00e+000 5.09e-002h  5
iter    objective    inf_pr   inf_du lg(mu)  ||d||  lg(rg) alpha_du alpha_pr  ls
  20 6.6688869e-001 5.05e-002 1.62e-003  -3.8 1.82e-001    -  1.00e+000 1.00e+000H  1
  21 6.6670517e-001 4.30e-002 5.08e-004  -3.8 7.20e-002    -  1.00e+000 1.00e+000h  1
  22 6.6672614e-001 6.10e-003 4.61e-005  -3.8 2.48e-002    -  1.00e+000 1.00e+000h  1
  23 3.7010289e-001 6.93e-001 5.90e-003  -5.7 2.23e-001    -  7.99e-001 1.00e+000f  1
  24 3.0925653e-001 2.85e-001 1.91e-003  -5.7 1.20e-001  -2.7 4.01e-001 8.10e-001h  1
  25 2.7691042e-001 1.65e-001 7.80e-004  -5.7 1.11e-001  -3.2 6.17e-001 6.77e-001h  1
  26 2.6010986e-001 7.78e-002 3.72e-004  -5.7 5.15e-002  -2.7 1.00e+000 8.07e-001h  1
  27 2.5078893e-001 5.14e-001 1.30e-003  -5.7 2.17e-001  -3.2 5.52e-001 6.80e-001h  1
  28 2.4862709e-001 2.36e-001 1.10e-003  -5.7 5.41e-002  -2.8 1.00e+000 5.37e-001h  1
  29 2.4562252e-001 2.18e+000 9.23e-003  -5.7 2.79e-001  -3.3 1.00e+000 1.00e+000h  1
iter    objective    inf_pr   inf_du lg(mu)  ||d||  lg(rg) alpha_du alpha_pr  ls
  30 2.4522173e-001 3.18e+000 1.07e-002  -5.7 1.16e+000  -3.7 4.25e-001 1.36e-001h  1
  31 2.4497409e-001 1.36e-001 4.27e-004  -5.7 6.17e-002  -3.3 1.00e+000 1.00e+000h  1
  32 2.4482093e-001 2.80e-001 5.07e-004  -5.7 2.03e-001  -3.8 7.43e-001 5.13e-001h  1
  33 2.4477595e-001 2.31e-001 6.22e-004  -5.7 2.91e+000    -  1.36e-001 1.80e-001H  1
  34 2.4475023e-001 1.78e-001 1.20e-003  -5.7 1.30e-001  -3.4 5.54e-001 2.48e-001f  1
  35 2.4466175e-001 1.18e-001 1.02e-003  -5.7 2.91e-001  -3.9 4.00e-001 5.58e-001f  1
  36 2.4461806e-001 4.19e-001 1.69e-003  -5.7 2.01e+000  -4.3 1.65e-001 9.96e-002h  1
  37 2.4421814e-001 7.62e-001 2.14e-002  -5.7 2.97e-001  -3.9 5.05e-001 8.56e-001H  1
  38 2.4446345e-001 9.43e-002 6.15e-003  -5.7 1.39e-001    -  1.00e+000 1.00e+000H  1
  39 2.4432359e-001 6.62e-001 5.06e-003  -5.7 1.20e-001  -3.5 1.00e+000 9.06e-001h  1
iter    objective    inf_pr   inf_du lg(mu)  ||d||  lg(rg) alpha_du alpha_pr  ls
  40 2.4421722e-001 5.52e-001 4.35e-003  -5.7 1.12e-001    -  6.51e-001 2.77e-001h  1
  41 2.4414124e-001 1.76e-002 7.24e-005  -5.7 3.20e-002    -  1.00e+000 1.00e+000h  1
  42 2.4414016e-001 2.72e-004 1.12e-006  -5.7 3.11e-003    -  1.00e+000 1.00e+000h  1
  43 2.4414000e-001 1.15e-007 1.18e-009  -5.7 1.95e-004    -  1.00e+000 1.00e+000h  1
  44 2.4116652e-001 3.94e-002 1.42e-004  -7.0 1.29e-001    -  5.59e-001 5.73e-001f  1
  45 2.3960433e-001 2.27e-001 5.28e-004  -7.0 5.07e-001    -  3.44e-001 6.50e-001h  1
  46 2.3900264e-001 8.18e-002 7.56e-004  -7.0 3.18e-002  -4.0 1.00e+000 6.75e-001h  1
  47 2.3861838e-001 5.56e-002 1.11e-004  -7.0 1.18e-001  -4.4 1.00e+000 1.00e+000h  1
  48 2.3859912e-001 2.12e-001 4.51e-004  -7.0 1.38e+000  -4.9 4.81e-001 1.72e-001h  1
  49 2.3857888e-001 1.54e-001 2.95e-004  -7.0 2.83e-001  -5.4 2.47e-001 5.74e-001h  1
iter    objective    inf_pr   inf_du lg(mu)  ||d||  lg(rg) alpha_du alpha_pr  ls
  50 2.3856651e-001 1.18e-001 4.62e-004  -7.0 2.55e-001  -5.0 3.95e-001 1.00e+000f  1
  51 2.3854789e-001 1.43e-001 4.87e-004  -7.0 2.96e-001  -4.5 1.00e+000 5.31e-001h  1
  52 2.3852980e-001 9.31e-002 3.40e-004  -7.0 1.50e-001  -4.1 1.77e-001 1.00e+000h  1
  53 2.3851392e-001 4.84e-002 1.54e-004  -7.0 8.73e-002  -3.7 1.00e+000 1.00e+000h  1
  54 2.3850357e-001 6.27e-002 2.00e-004  -7.0 4.58e-001  -4.2 1.00e+000 1.43e-001h  1
  55 2.3850370e-001 1.46e-003 2.44e-004  -7.0 3.15e-002    -  1.68e-001 1.00e+000h  1
  56 2.3850202e-001 4.38e-004 1.06e-004  -7.0 2.40e-002    -  1.00e+000 4.79e-001h  1
  57 2.3850260e-001 6.93e-005 4.17e-005  -7.0 3.69e-003    -  7.03e-001 1.00e+000f  1
  58 2.3850241e-001 1.73e-005 1.63e-007  -7.0 1.73e-003    -  1.00e+000 1.00e+000h  1
  59 2.3850237e-001 4.93e-007 4.13e-009  -7.0 2.92e-004    -  1.00e+000 1.00e+000h  1

Number of Iterations....: 59

                                   (scaled)                 (unscaled)
Objective...............:  2.3850237114952202e-001   2.3850237114952202e-001
Dual infeasibility......:  4.1319588024008556e-009   4.1319588024008556e-009
Constraint violation....:  1.9052780475970615e-007   4.9269494439840855e-007
Complementarity.........:  9.4555147673589246e-008   9.4555147673589246e-008
Overall NLP error.......:  1.9052780475970615e-007   4.9269494439840855e-007


Number of objective function evaluations             = 70
Number of objective gradient evaluations             = 60
Number of equality constraint evaluations            = 70
Number of inequality constraint evaluations          = 70
Number of equality constraint Jacobian evaluations   = 60
Number of inequality constraint Jacobian evaluations = 60
Number of Lagrangian Hessian evaluations             = 59
Total CPU secs in IPOPT (w/o function evaluations)   =      8.164
Total CPU secs in NLP function evaluations           =      1.511

EXIT: Optimal Solution Found.
               t_proc [s]   t_wall [s]    n_eval
       nlp_f         0.02       0.0201        70
       nlp_g         0.13         0.13        70
  nlp_grad_f        0.046       0.0461        61
  nlp_hess_l        0.623        0.622        59
   nlp_jac_g        0.689         0.69        61
      solver         9.68         9.68         1
